
  32    4
  10   10   10   10

   0   0   0   0   0   2 2 3 
   5   1   0   1   1   2 5 4 
  10   7   1   0   4   1 4 
   2   4   0   7   4   2 13 6 
   6   3   5   0   3   2 13 6 
   8   2   0   2   2   1 7 
   6   4   2   4   0   2 9 8 
   4   0   3   5   4   2 12 10 
   2   6   0   2   5   1 10 
   9   3   0   6   4   2 14 11 
   2   4   1   6   0   2 16 15 
   5   7   5   6   0   2 16 15 
   8   4   3   3   0   1 14 
   8   3   7   0   3   2 18 16 
   7   4   0   3   5   2 19 17 
   1   0   4   4   3   3 28 20 19 
   3   0   5   4   5   2 21 18 
   7   5   2   3   0   2 28 22 
   6   3   6   0  10   2 22 21 
   1   4   3   0   2   1 21 
   1   3   7   0   2   1 23 
   8   6   0   5   5   1 23 
   9   2   5   0   4   1 24 
   6   6   4   0   5   1 25 
   6   5   4   3   0   1 26 
  10   4   4   5   0   1 27 
   1   3   0   5   7   1 29 
   1   3   1   0   4   1 29 
   4   0   5   4   4   2 31 30 
  10   3   7   3   0   1 32
   5   5   0   3   2   1 32
   0   0   0   0   0   0 
